\ Model prob_36
\ LP format - for model browsing. Use MPS format to capture full model detail.
Minimize
  5 x_1_2 + 7 x_1_3 + 5 x_1_4 + 27 x_1_5 + 49 x_1_6 + 31 x_2_1 + 14 x_2_3
   + 31 x_2_4 + 3 x_2_5 + 4 x_2_6 + 9 x_3_1 + 13 x_3_2 + 23 x_3_4
   + 38 x_3_5 + 19 x_3_6 + 47 x_4_1 + 34 x_4_2 + 7 x_4_3 + 34 x_4_5
   + 35 x_4_6 + 21 x_5_1 + 11 x_5_2 + 6 x_5_3 + 7 x_5_4 + 50 x_5_6
   + 28 x_6_1 + 41 x_6_2 + 34 x_6_3 + 17 x_6_4 + 32 x_6_5
Subject To
 R0: - x_1_2 - x_1_3 - x_1_4 - x_1_5 - x_1_6 + x_2_1 + x_3_1 + x_4_1
   + x_5_1 + x_6_1 >= -336
 R1: x_1_2 - x_2_1 - x_2_3 - x_2_4 - x_2_5 - x_2_6 + x_3_2 + x_4_2 + x_5_2
   + x_6_2 >= 218
 R2: x_1_3 + x_2_3 - x_3_1 - x_3_2 - x_3_4 - x_3_5 - x_3_6 + x_4_3 + x_5_3
   + x_6_3 >= -164
 R3: x_1_4 + x_2_4 + x_3_4 - x_4_1 - x_4_2 - x_4_3 - x_4_5 - x_4_6 + x_5_4
   + x_6_4 >= 180
 R4: x_1_5 + x_2_5 + x_3_5 + x_4_5 - x_5_1 - x_5_2 - x_5_3 - x_5_4 - x_5_6
   + x_6_5 >= -73
 R5: x_1_6 + x_2_6 + x_3_6 + x_4_6 + x_5_6 - x_6_1 - x_6_2 - x_6_3 - x_6_4
   - x_6_5 >= -101
Bounds
Generals
 x_1_2 x_1_3 x_1_4 x_1_5 x_1_6 x_2_1 x_2_3 x_2_4 x_2_5 x_2_6 x_3_1 x_3_2 x_3_4
 x_3_5 x_3_6 x_4_1 x_4_2 x_4_3 x_4_5 x_4_6 x_5_1 x_5_2 x_5_3 x_5_4 x_5_6 x_6_1
 x_6_2 x_6_3 x_6_4 x_6_5
End
